32      4       
15      18      17      18      
0       0       0       0       0       16      2       4       6       7       8       13      14      15      24      25      26      27      28      29      30      31      
4       4       1       1       5       1       3       
5       9       1       1       9       3       16      11      5       
5       3       1       4       7       4       23      18      16      11      
10      1       1       9       1       2       18      9       
1       1       11      1       2       3       22      21      17      
7       6       9       7       11      2       20      12      
1       5       15      2       1       2       17      16      
4       1       11      1       9       1       10      
9       12      8       1       3       1       17      
1       1       1       8       1       1       19      
5       7       3       11      1       1       16      
6       5       8       1       7       1       18      
5       9       1       7       1       1       16      
10      7       1       5       1       1       16      
3       7       1       5       7       1       32      
1       1       8       7       6       1       32      
6       5       1       1       5       1       32      
9       4       1       1       8       1       32      
6       5       1       1       1       1       32      
4       1       4       1       9       1       32      
1       6       4       5       1       1       32      
10      2       4       4       7       1       32      
7       1       10      2       5       1       32      
1       1       1       7       8       1       32      
6       1       1       2       3       1       32      
7       1       16      7       6       1       32      
8       3       1       1       3       1       32      
1       2       5       5       1       1       32      
3       1       4       3       5       1       32      
8       1       1       17      1       1       32      
0       0       0       0       0       0       
